NAME: I23400-n91-k7
COMMENT : (Fake et al, No of trucks: 7, Optimal value: )
TYPE : CVRP
DIMENSION : 91
EDGE_WEIGHT_TYPE : EUC_2D
CAPACITY : 24
NODE_COORD_SECTION
1 265 261
2 190 298
3 140 463
4 181 836
5 701 34
6 858 435
7 204 872
8 355 609
9 598 563
10 574 23
11 8 124
12 978 773
13 826 213
14 365 810
15 50 663
16 916 651
17 578 191
18 482 926
19 334 846
20 623 439
21 264 1
22 959 146
23 604 32
24 274 956
25 1 664
26 496 739
27 970 464
28 286 956
29 585 737
30 580 188
31 311 376
32 821 788
33 755 586
34 421 708
35 507 932
36 558 954
37 132 19
38 718 314
39 217 200
40 813 372
41 397 876
42 820 914
43 845 728
44 746 28
45 122 558
46 365 947
47 247 902
48 674 262
49 13 630
50 368 811
51 109 299
52 97 675
53 70 621
54 814 727
55 218 411
56 359 409
57 817 208
58 577 987
59 649 582
60 491 692
61 863 919
62 630 825
63 898 616
64 252 577
65 437 814
66 251 144
67 690 103
68 85 331
69 3 80
70 920 84
71 21 483
72 897 776
73 324 199
74 679 300
75 393 549
76 257 943
77 301 149
78 55 156
79 591 190
80 1000 551
81 735 530
82 265 318
83 38 519
84 160 619
85 463 380
86 590 188
87 595 725
88 371 843
89 650 925
90 460 658
91 164 739
DEMAND_SECTION
1 0
2 1
3 2
4 2
5 2
6 1
7 1
8 1
9 1
10 2
11 1
12 2
13 1
14 1
15 2
16 1
17 2
18 2
19 1
20 2
21 2
22 1
23 1
24 2
25 1
26 1
27 2
28 2
29 1
30 2
31 1
32 1
33 2
34 2
35 2
36 1
37 2
38 2
39 1
40 2
41 1
42 1
43 1
44 1
45 2
46 1
47 2
48 2
49 2
50 2
51 1
52 1
53 2
54 2
55 2
56 2
57 2
58 2
59 1
60 1
61 1
62 1
63 1
64 1
65 2
66 2
67 2
68 2
69 2
70 2
71 2
72 2
73 1
74 2
75 2
76 1
77 2
78 1
79 1
80 2
81 1
82 2
83 2
84 1
85 1
86 1
87 1
88 2
89 2
90 1
91 1
DEPOT_SECTION
 1
 -1
 EOF 